<?xml version = "1.0" encoding="UTF-8" standalone="yes"?>
<CPLEXSolution version="1.2">
 <header
   problemName="problem.clp"
   solutionName="incumbent"
   solutionIndex="-1"
   objectiveValue="1"
   solutionTypeValue="3"
   solutionTypeString="primal"
   solutionStatusValue="101"
   solutionStatusString="integer optimal solution"
   solutionMethodString="mip"
   primalFeasible="1"
   dualFeasible="1"
   MIPNodes="0"
   MIPIterations="0"
   writeLevel="1"/>
 <quality
   epInt="1e-05"
   epRHS="1e-06"
   maxIntInfeas="0"
   maxPrimalInfeas="0"
   maxX="1"
   maxSlack="0"/>
 <linearConstraints>
  <constraint name="c1" index="0" slack="0"/>
 </linearConstraints>
 <variables>
  <variable name="privately_deterministic" index="0" value="1"/>
  <variable name="pub2" index="1" value="0"/>
 </variables>
</CPLEXSolution>
